PointerNetwork/Ptr_Net_TSPTW/benchmark/n20w20/n20w20.005.txt.solution
1 20 12 8 19 17 14 9 4 18 3 6 11 5 16 10 15 7 21 2 13 
352
